40
2 1 1
3 0 1
4 2 1
5 1 1
5 2 1
6 0 1
6 5 1
7 4 1
8 0 1
8 1 1
8 3 1
8 5 1
9 3 1
9 6 1
9 7 1
9 8 1
10 0 1
10 1 1
10 4 1
10 5 1
11 0 1
11 1 1
11 2 1
11 3 1
11 7 1
12 3 1
12 4 1
12 8 1
12 10 1
12 11 1
13 1 1
13 2 1
13 5 1
13 6 1
13 7 1
13 9 1
13 11 1
13 12 1
14 0 1
14 1 1
14 2 1
14 4 1
14 6 1
14 7 1
14 9 1
14 13 1
15 4 1
15 5 1
15 7 1
15 8 1
15 11 1
16 0 1
16 2 1
16 3 1
16 4 1
16 5 1
16 8 1
16 12 1
16 13 1
16 14 1
17 0 1
17 2 1
17 3 1
17 4 1
17 5 1
17 6 1
17 8 1
17 9 1
17 10 1
17 11 1
17 13 1
17 14 1
17 15 1
17 16 1
18 0 1
18 1 1
18 2 1
18 4 1
18 6 1
18 8 1
18 11 1
18 13 1
18 14 1
18 16 1
18 17 1
19 2 1
19 3 1
19 6 1
19 9 1
19 10 1
19 12 1
19 13 1
19 15 1
19 16 1
19 17 1
20 0 1
20 1 1
20 2 1
20 4 1
20 9 1
20 10 1
20 14 1
20 17 1
20 19 1
21 1 1
21 6 1
21 7 1
21 8 1
21 9 1
21 10 1
21 14 1
21 15 1
21 16 1
21 19 1
22 0 1
22 1 1
22 15 1
22 17 1
22 19 1
22 21 1
23 0 1
23 2 1
23 7 1
23 8 1
23 11 1
23 12 1
23 13 1
23 15 1
23 17 1
23 22 1
24 0 1
24 1 1
24 2 1
24 4 1
24 7 1
24 8 1
24 9 1
24 10 1
24 15 1
24 16 1
24 17 1
24 18 1
24 20 1
24 21 1
24 22 1
24 23 1
25 2 1
25 3 1
25 4 1
25 5 1
25 6 1
25 7 1
25 8 1
25 9 1
25 10 1
25 12 1
25 14 1
25 16 1
25 18 1
25 19 1
25 21 1
25 22 1
25 24 1
26 2 1
26 9 1
26 10 1
26 12 1
26 13 1
26 15 1
26 21 1
26 22 1
26 23 1
26 25 1
27 1 1
27 5 1
27 9 1
27 12 1
27 14 1
27 16 1
27 23 1
27 24 1
27 26 1
28 2 1
28 3 1
28 4 1
28 5 1
28 6 1
28 7 1
28 8 1
28 9 1
28 10 1
28 15 1
28 18 1
28 19 1
28 21 1
28 22 1
28 23 1
28 25 1
28 26 1
29 0 1
29 1 1
29 3 1
29 5 1
29 6 1
29 7 1
29 10 1
29 13 1
29 15 1
29 16 1
29 20 1
29 23 1
29 24 1
29 26 1
30 1 1
30 2 1
30 3 1
30 5 1
30 7 1
30 8 1
30 9 1
30 12 1
30 13 1
30 14 1
30 20 1
30 21 1
30 22 1
30 23 1
30 28 1
31 1 1
31 3 1
31 6 1
31 7 1
31 8 1
31 10 1
31 11 1
31 13 1
31 14 1
31 15 1
31 17 1
31 18 1
31 19 1
31 21 1
31 22 1
31 23 1
31 24 1
31 25 1
31 26 1
31 27 1
32 4 1
32 6 1
32 8 1
32 13 1
32 19 1
32 21 1
32 22 1
32 23 1
32 27 1
32 28 1
32 29 1
33 0 1
33 1 1
33 2 1
33 7 1
33 8 1
33 9 1
33 11 1
33 12 1
33 16 1
33 19 1
33 24 1
33 25 1
33 26 1
33 27 1
33 29 1
33 30 1
34 2 1
34 6 1
34 9 1
34 12 1
34 13 1
34 14 1
34 15 1
34 16 1
34 17 1
34 18 1
34 20 1
34 21 1
34 24 1
34 25 1
34 26 1
34 27 1
34 29 1
34 32 1
34 33 1
35 1 1
35 2 1
35 3 1
35 4 1
35 7 1
35 8 1
35 9 1
35 11 1
35 12 1
35 17 1
35 24 1
35 25 1
35 28 1
35 29 1
35 34 1
36 0 1
36 1 1
36 5 1
36 7 1
36 8 1
36 14 1
36 15 1
36 17 1
36 18 1
36 19 1
36 23 1
36 25 1
36 26 1
36 31 1
36 33 1
37 2 1
37 3 1
37 4 1
37 7 1
37 11 1
37 12 1
37 14 1
37 16 1
37 17 1
37 19 1
37 22 1
37 23 1
37 24 1
37 27 1
37 28 1
37 30 1
37 31 1
37 33 1
37 35 1
37 36 1
38 2 1
38 4 1
38 5 1
38 6 1
38 7 1
38 8 1
38 9 1
38 10 1
38 11 1
38 12 1
38 14 1
38 15 1
38 17 1
38 20 1
38 21 1
38 24 1
38 25 1
38 26 1
38 29 1
38 31 1
38 33 1
38 34 1
38 36 1
39 0 1
39 1 1
39 3 1
39 5 1
39 6 1
39 8 1
39 10 1
39 12 1
39 14 1
39 16 1
39 19 1
39 20 1
39 25 1
39 27 1
39 30 1
39 31 1
39 33 1
39 37 1
